100 2392
1 4 -1
1 5 -1
1 7 1
1 8 -1
1 10 -1
1 11 -1
1 12 -1
1 16 1
1 21 1
1 27 1
1 28 -1
1 31 -1
1 32 -1
1 33 -1
1 34 -1
1 36 -1
1 37 1
1 40 1
1 41 1
1 42 1
1 43 -1
1 46 1
1 49 1
1 51 -1
1 52 1
1 54 -1
1 55 1
1 56 -1
1 58 1
1 59 1
1 61 -1
1 64 1
1 65 1
1 66 -1
1 69 -1
1 70 1
1 71 1
1 72 -1
1 74 -1
1 76 1
1 84 1
1 85 1
1 89 -1
1 91 1
1 96 -1
1 97 1
1 98 1
1 100 1
2 3 1
2 5 -1
2 6 1
2 7 1
2 8 -1
2 9 1
2 10 -1
2 13 -1
2 14 1
2 16 1
2 18 1
2 19 1
2 21 1
2 25 1
2 30 -1
2 32 1
2 33 1
2 34 -1
2 39 -1
2 44 1
2 46 1
2 47 -1
2 50 1
2 53 -1
2 54 -1
2 55 1
2 58 -1
2 59 1
2 61 -1
2 62 1
2 63 -1
2 67 -1
2 71 -1
2 72 1
2 76 -1
2 77 1
2 78 1
2 81 1
2 83 -1
2 85 -1
2 88 1
2 89 -1
2 90 -1
2 94 -1
2 95 1
2 98 -1
2 100 -1
3 4 1
3 6 -1
3 8 -1
3 11 1
3 17 -1
3 18 -1
3 20 1
3 21 -1
3 23 1
3 24 1
3 26 -1
3 27 -1
3 31 1
3 32 1
3 33 1
3 37 -1
3 38 -1
3 43 1
3 44 1
3 45 -1
3 46 -1
3 47 -1
3 48 -1
3 54 1
3 55 1
3 56 -1
3 57 1
3 59 -1
3 60 1
3 61 1
3 62 -1
3 64 1
3 67 1
3 68 -1
3 70 -1
3 71 1
3 72 -1
3 75 -1
3 76 1
3 77 -1
3 81 1
3 82 -1
3 85 1
3 87 -1
3 88 1
3 91 -1
3 92 -1
3 93 -1
3 94 -1
3 96 1
3 98 -1
3 99 -1
4 5 -1
4 7 1
4 9 -1
4 10 1
4 11 -1
4 13 1
4 15 -1
4 16 1
4 17 -1
4 20 1
4 21 1
4 23 -1
4 25 1
4 26 1
4 27 1
4 28 1
4 29 -1
4 30 1
4 31 1
4 32 -1
4 34 1
4 38 1
4 42 -1
4 43 -1
4 45 -1
4 46 1
4 48 1
4 54 1
4 58 1
4 59 1
4 60 1
4 65 1
4 69 1
4 70 1
4 72 1
4 73 -1
4 74 -1
4 75 -1
4 76 -1
4 77 1
4 79 -1
4 80 1
4 81 -1
4 83 1
4 84 1
4 86 1
4 88 1
4 89 1
4 92 -1
4 94 -1
4 95 -1
4 98 -1
4 100 -1
5 6 -1
5 7 -1
5 9 -1
5 14 1
5 16 -1
5 18 1
5 21 -1
5 23 1
5 25 1
5 26 -1
5 27 1
5 28 -1
5 29 -1
5 31 1
5 33 -1
5 34 1
5 35 1
5 36 1
5 37 1
5 38 1
5 39 1
5 40 1
5 46 1
5 47 1
5 50 1
5 51 -1
5 54 1
5 55 -1
5 56 -1
5 58 -1
5 59 1
5 62 1
5 65 -1
5 66 -1
5 69 1
5 71 -1
5 73 -1
5 75 1
5 78 1
5 79 1
5 80 -1
5 84 1
5 87 -1
5 88 1
5 89 -1
5 92 -1
5 96 -1
5 97 1
5 99 -1
5 100 1
6 9 -1
6 10 1
6 14 -1
6 17 -1
6 19 1
6 22 1
6 32 1
6 35 1
6 36 -1
6 39 -1
6 40 -1
6 41 1
6 42 1
6 44 1
6 47 -1
6 49 -1
6 52 -1
6 53 1
6 55 -1
6 56 1
6 57 -1
6 58 -1
6 59 -1
6 60 1
6 61 1
6 62 1
6 66 -1
6 67 1
6 68 1
6 69 1
6 70 1
6 73 1
6 75 1
6 77 -1
6 79 1
6 80 1
6 82 1
6 83 1
6 84 -1
6 85 -1
6 86 1
6 88 -1
6 89 -1
6 92 1
6 93 1
6 94 1
6 95 1
6 99 1
6 100 -1
7 8 1
7 9 -1
7 10 -1
7 11 -1
7 15 -1
7 17 1
7 20 1
7 22 -1
7 24 -1
7 26 -1
7 27 -1
7 28 1
7 29 1
7 30 1
7 32 -1
7 36 1
7 38 -1
7 40 1
7 42 -1
7 43 -1
7 48 1
7 49 1
7 50 -1
7 54 -1
7 56 1
7 58 1
7 62 -1
7 64 -1
7 66 1
7 67 1
7 68 -1
7 70 1
7 71 1
7 75 -1
7 76 1
7 77 -1
7 79 1
7 80 -1
7 81 1
7 82 1
7 83 1
7 84 1
7 85 -1
7 88 -1
7 90 1
7 92 1
7 95 -1
7 96 -1
7 97 1
7 98 1
7 99 -1
8 9 -1
8 10 1
8 11 1
8 13 -1
8 14 -1
8 15 -1
8 16 1
8 18 -1
8 19 1
8 20 -1
8 21 -1
8 24 1
8 26 1
8 27 1
8 28 -1
8 29 1
8 30 -1
8 31 1
8 33 -1
8 35 1
8 36 1
8 38 -1
8 42 1
8 43 1
8 44 1
8 47 -1
8 50 -1
8 53 1
8 54 1
8 55 1
8 58 -1
8 59 -1
8 63 1
8 68 1
8 70 1
8 72 -1
8 74 1
8 79 -1
8 80 -1
8 85 1
8 90 1
8 92 -1
8 98 -1
8 99 1
8 100 1
9 10 1
9 13 -1
9 17 -1
9 23 1
9 26 -1
9 27 -1
9 29 -1
9 33 -1
9 34 1
9 35 1
9 38 -1
9 43 1
9 44 1
9 46 -1
9 50 1
9 55 1
9 57 -1
9 59 1
9 60 -1
9 62 1
9 63 -1
9 65 -1
9 67 1
9 69 -1
9 70 -1
9 72 -1
9 75 -1
9 79 -1
9 80 -1
9 82 1
9 85 1
9 87 1
9 89 1
9 90 -1
9 91 -1
9 92 -1
9 93 -1
9 94 1
9 95 -1
9 97 1
9 99 -1
9 100 1
10 13 1
10 15 1
10 19 -1
10 21 1
10 28 1
10 29 1
10 30 1
10 31 -1
10 33 -1
10 34 -1
10 39 1
10 40 -1
10 42 -1
10 43 1
10 44 1
10 46 -1
10 49 1
10 50 1
10 52 1
10 54 1
10 56 -1
10 57 1
10 58 -1
10 62 -1
10 63 -1
10 64 1
10 65 1
10 66 1
10 67 1
10 69 1
10 71 -1
10 73 1
10 74 1
10 76 -1
10 77 -1
10 78 1
10 80 1
10 82 1
10 84 -1
10 87 1
10 89 -1
10 92 -1
10 93 -1
10 94 -1
10 96 -1
10 97 1
11 14 1
11 18 1
11 22 -1
11 23 -1
11 24 1
11 27 1
11 28 -1
11 34 1
11 49 1
11 52 1
11 58 1
11 62 1
11 66 -1
11 68 1
11 69 1
11 73 -1
11 76 1
11 80 -1
11 81 -1
11 82 1
11 84 -1
11 85 1
11 86 1
11 87 1
11 90 1
11 91 1
11 92 -1
11 94 1
11 95 1
11 96 1
11 97 1
11 98 -1
11 99 1
11 100 1
12 14 -1
12 15 1
12 21 1
12 22 1
12 23 1
12 25 1
12 26 1
12 28 -1
12 29 -1
12 31 -1
12 33 1
12 35 1
12 36 1
12 37 1
12 39 1
12 42 -1
12 43 1
12 44 -1
12 45 -1
12 49 -1
12 50 -1
12 52 -1
12 55 1
12 56 -1
12 57 -1
12 63 1
12 64 1
12 65 1
12 67 1
12 68 1
12 69 1
12 70 1
12 73 1
12 74 -1
12 75 1
12 76 1
12 78 1
12 84 1
12 91 -1
12 94 -1
12 97 -1
12 98 1
13 16 1
13 18 -1
13 21 1
13 22 1
13 23 -1
13 24 1
13 25 -1
13 26 1
13 27 -1
13 28 -1
13 29 -1
13 31 1
13 33 1
13 38 1
13 40 -1
13 43 -1
13 44 -1
13 45 1
13 46 1
13 49 1
13 52 1
13 56 1
13 57 -1
13 61 1
13 62 -1
13 67 -1
13 68 -1
13 69 -1
13 70 -1
13 71 1
13 73 1
13 74 1
13 75 -1
13 76 -1
13 78 -1
13 80 1
13 84 -1
13 89 -1
13 91 1
13 92 -1
13 93 1
13 95 -1
13 96 1
13 97 1
13 100 1
14 15 -1
14 17 -1
14 18 -1
14 23 1
14 25 -1
14 27 1
14 29 1
14 30 1
14 31 -1
14 32 1
14 33 1
14 34 -1
14 35 1
14 36 1
14 39 1
14 42 1
14 48 -1
14 52 1
14 56 1
14 57 1
14 58 1
14 60 1
14 61 1
14 62 -1
14 67 1
14 68 1
14 71 -1
14 72 -1
14 75 1
14 79 -1
14 82 1
14 83 -1
14 84 -1
14 85 -1
14 86 1
14 87 -1
14 89 -1
14 90 -1
14 91 -1
14 95 1
14 96 -1
14 97 1
14 99 1
14 100 1
15 16 1
15 17 -1
15 21 1
15 23 -1
15 26 1
15 28 -1
15 30 1
15 31 1
15 32 -1
15 33 1
15 34 1
15 36 -1
15 38 1
15 39 1
15 41 1
15 42 -1
15 43 1
15 45 -1
15 48 -1
15 50 1
15 51 1
15 54 1
15 57 1
15 60 -1
15 62 1
15 63 -1
15 64 -1
15 67 1
15 68 -1
15 73 1
15 75 1
15 83 1
15 84 1
15 85 -1
15 86 -1
15 91 -1
15 93 1
15 95 1
15 97 1
15 99 1
16 18 -1
16 20 1
16 21 -1
16 22 -1
16 24 1
16 25 -1
16 28 -1
16 29 1
16 34 -1
16 35 1
16 36 -1
16 37 -1
16 39 1
16 41 -1
16 42 1
16 46 1
16 47 1
16 49 1
16 50 -1
16 52 1
16 55 1
16 57 1
16 58 -1
16 60 -1
16 61 -1
16 63 -1
16 65 1
16 69 -1
16 77 1
16 81 1
16 82 -1
16 84 1
16 86 -1
16 87 -1
16 88 1
16 91 1
16 94 -1
16 96 -1
16 97 1
16 99 1
17 18 -1
17 19 -1
17 20 -1
17 26 -1
17 28 -1
17 30 -1
17 34 1
17 35 1
17 37 1
17 46 1
17 47 -1
17 50 1
17 51 1
17 55 -1
17 56 1
17 57 -1
17 58 -1
17 59 -1
17 64 -1
17 65 -1
17 67 1
17 70 -1
17 71 -1
17 76 -1
17 79 -1
17 80 -1
17 81 1
17 88 -1
17 90 1
17 92 -1
17 93 -1
17 96 1
17 97 1
17 98 -1
17 99 -1
17 100 -1
18 21 -1
18 23 1
18 24 -1
18 25 -1
18 26 1
18 27 1
18 30 1
18 33 -1
18 34 1
18 36 1
18 39 1
18 42 -1
18 43 -1
18 45 -1
18 47 1
18 48 -1
18 52 1
18 55 1
18 56 -1
18 57 1
18 58 1
18 61 1
18 63 -1
18 67 -1
18 68 1
18 70 1
18 72 1
18 73 1
18 76 1
18 77 -1
18 78 1
18 80 1
18 86 1
18 87 1
18 88 -1
18 89 -1
18 90 -1
18 93 1
18 95 1
18 99 -1
19 25 -1
19 26 1
19 27 1
19 28 -1
19 30 -1
19 32 1
19 36 -1
19 37 -1
19 38 -1
19 39 1
19 40 -1
19 43 -1
19 46 -1
19 47 -1
19 48 -1
19 50 -1
19 53 1
19 55 1
19 58 1
19 59 -1
19 62 -1
19 65 1
19 66 -1
19 68 -1
19 70 -1
19 71 -1
19 79 1
19 81 1
19 82 -1
19 86 -1
19 89 -1
19 93 -1
19 94 -1
19 95 1
19 96 -1
19 97 -1
19 98 -1
19 99 -1
19 100 1
20 29 -1
20 30 -1
20 31 -1
20 34 -1
20 35 -1
20 37 -1
20 38 -1
20 41 -1
20 42 1
20 46 1
20 47 -1
20 48 1
20 53 1
20 55 1
20 56 -1
20 57 1
20 59 -1
20 60 -1
20 61 1
20 62 -1
20 64 -1
20 65 -1
20 67 1
20 68 1
20 72 1
20 75 -1
20 77 1
20 78 1
20 79 1
20 80 1
20 83 1
20 86 -1
20 88 1
20 90 -1
20 94 1
20 96 1
20 97 -1
20 98 1
20 100 1
21 22 -1
21 24 1
21 25 -1
21 26 -1
21 27 -1
21 29 1
21 31 1
21 34 1
21 36 -1
21 37 -1
21 38 -1
21 42 -1
21 43 1
21 44 1
21 47 -1
21 49 -1
21 51 -1
21 54 -1
21 56 -1
21 58 1
21 63 1
21 65 1
21 66 -1
21 70 -1
21 71 -1
21 73 -1
21 78 1
21 86 1
21 90 -1
21 91 -1
21 93 -1
21 97 -1
21 98 1
21 99 1
22 25 -1
22 28 -1
22 29 1
22 35 -1
22 37 1
22 45 -1
22 46 -1
22 48 -1
22 52 -1
22 54 -1
22 56 -1
22 58 1
22 59 1
22 65 1
22 66 -1
22 68 -1
22 71 -1
22 72 -1
22 73 -1
22 77 1
22 78 1
22 79 1
22 80 -1
22 82 1
22 83 -1
22 84 1
22 86 -1
22 88 -1
22 99 -1
23 26 -1
23 28 -1
23 29 1
23 31 -1
23 33 -1
23 35 1
23 40 1
23 50 -1
23 56 -1
23 57 -1
23 60 1
23 61 -1
23 64 -1
23 68 1
23 70 1
23 71 -1
23 73 -1
23 74 1
23 75 1
23 76 -1
23 83 -1
23 87 1
23 88 -1
23 89 -1
23 94 -1
23 95 -1
24 25 -1
24 26 -1
24 27 1
24 28 -1
24 29 -1
24 32 -1
24 33 1
24 35 1
24 39 1
24 40 1
24 43 1
24 44 1
24 48 -1
24 50 -1
24 51 1
24 52 1
24 53 1
24 58 -1
24 59 -1
24 61 1
24 62 -1
24 63 -1
24 64 1
24 67 -1
24 68 -1
24 71 1
24 73 1
24 75 1
24 81 1
24 82 -1
24 84 -1
24 85 -1
24 86 1
24 87 -1
24 90 -1
24 91 1
24 92 1
24 93 1
24 95 1
24 98 1
24 99 -1
24 100 -1
25 27 1
25 28 -1
25 29 1
25 30 1
25 32 -1
25 34 1
25 36 -1
25 37 -1
25 38 -1
25 39 -1
25 43 -1
25 44 1
25 46 -1
25 47 1
25 49 1
25 54 -1
25 55 1
25 56 -1
25 61 1
25 63 -1
25 65 1
25 66 1
25 72 -1
25 74 -1
25 77 -1
25 78 1
25 81 -1
25 86 1
25 88 -1
25 89 1
25 90 1
25 91 1
25 92 -1
25 93 1
25 97 -1
25 98 1
25 100 -1
26 27 -1
26 28 1
26 29 -1
26 31 -1
26 32 -1
26 34 -1
26 35 1
26 38 1
26 39 1
26 41 1
26 43 -1
26 44 -1
26 45 -1
26 47 -1
26 52 1
26 53 -1
26 54 1
26 57 1
26 58 -1
26 63 -1
26 65 -1
26 66 -1
26 67 -1
26 68 -1
26 69 1
26 71 -1
26 72 1
26 74 -1
26 75 -1
26 79 -1
26 81 -1
26 83 -1
26 94 1
26 95 -1
26 98 -1
26 100 -1
27 29 -1
27 34 1
27 35 -1
27 37 -1
27 40 -1
27 41 1
27 43 1
27 44 1
27 47 -1
27 49 -1
27 50 -1
27 52 -1
27 53 -1
27 54 1
27 55 -1
27 56 1
27 57 1
27 62 1
27 63 -1
27 66 -1
27 67 1
27 70 1
27 72 1
27 73 1
27 75 1
27 78 -1
27 81 1
27 82 1
27 83 1
27 84 1
27 85 -1
27 86 1
27 87 -1
27 88 1
27 89 1
27 90 -1
27 94 1
27 95 1
27 98 -1
28 29 1
28 30 -1
28 33 1
28 35 1
28 36 -1
28 39 1
28 40 -1
28 41 1
28 46 -1
28 47 -1
28 49 1
28 50 1
28 52 1
28 59 1
28 62 -1
28 70 1
28 72 1
28 75 1
28 77 1
28 78 -1
28 79 -1
28 80 1
28 81 1
28 83 1
28 85 -1
28 86 1
28 90 1
28 91 -1
28 93 -1
28 94 1
28 95 1
28 96 -1
28 97 -1
28 98 -1
29 30 -1
29 35 1
29 36 1
29 41 -1
29 43 1
29 47 -1
29 49 1
29 53 -1
29 58 1
29 59 1
29 60 -1
29 63 -1
29 64 1
29 65 1
29 69 1
29 73 -1
29 74 -1
29 77 1
29 79 1
29 80 1
29 81 -1
29 82 -1
29 83 1
29 84 -1
29 85 -1
29 87 1
29 90 1
29 92 -1
29 95 -1
29 96 -1
29 98 1
30 32 1
30 34 1
30 39 -1
30 41 1
30 43 1
30 45 -1
30 46 -1
30 53 -1
30 54 -1
30 55 -1
30 62 1
30 64 -1
30 65 1
30 68 -1
30 73 -1
30 75 1
30 77 -1
30 78 -1
30 80 1
30 81 -1
30 83 -1
30 85 -1
30 86 -1
30 88 1
30 89 -1
30 90 1
30 91 1
30 92 1
30 93 -1
30 94 1
30 95 -1
30 96 -1
30 97 1
30 98 1
31 32 1
31 39 -1
31 40 1
31 44 1
31 45 -1
31 47 -1
31 51 1
31 52 -1
31 54 1
31 57 -1
31 58 -1
31 59 -1
31 60 1
31 61 1
31 63 1
31 64 1
31 66 -1
31 67 1
31 69 1
31 71 -1
31 75 -1
31 76 -1
31 77 -1
31 81 -1
31 85 1
31 86 1
31 87 -1
31 88 1
31 91 -1
31 92 1
31 97 -1
31 99 -1
32 34 1
32 41 -1
32 42 -1
32 43 1
32 47 -1
32 49 1
32 50 -1
32 51 -1
32 52 -1
32 53 -1
32 54 1
32 55 -1
32 56 -1
32 58 -1
32 65 -1
32 66 1
32 67 1
32 68 -1
32 70 1
32 73 -1
32 75 1
32 78 1
32 79 -1
32 81 -1
32 84 -1
32 87 -1
32 89 1
32 90 -1
32 91 -1
32 96 1
32 99 1
33 37 1
33 39 1
33 40 1
33 43 1
33 45 1
33 51 1
33 52 -1
33 53 -1
33 55 -1
33 58 -1
33 62 -1
33 64 -1
33 65 1
33 67 -1
33 68 1
33 69 1
33 75 1
33 76 -1
33 77 1
33 80 1
33 81 -1
33 85 -1
33 86 1
33 87 -1
33 88 -1
33 89 1
33 91 -1
33 97 -1
33 98 -1
33 100 1
34 35 1
34 36 -1
34 37 -1
34 40 -1
34 44 -1
34 45 1
34 47 -1
34 49 1
34 50 1
34 52 1
34 55 -1
34 56 1
34 57 -1
34 59 1
34 60 1
34 61 -1
34 62 -1
34 67 1
34 73 1
34 74 -1
34 75 1
34 76 1
34 80 1
34 82 -1
34 84 -1
34 85 1
34 90 1
34 91 1
34 92 1
34 95 -1
34 96 -1
35 37 -1
35 39 1
35 40 -1
35 43 -1
35 44 -1
35 46 -1
35 48 -1
35 51 1
35 54 -1
35 57 -1
35 58 1
35 61 1
35 63 1
35 65 1
35 66 1
35 70 1
35 72 -1
35 75 -1
35 78 1
35 80 1
35 81 1
35 82 -1
35 84 -1
35 86 1
35 90 -1
35 91 1
35 96 1
35 99 1
35 100 1
36 37 -1
36 38 1
36 54 -1
36 58 -1
36 60 -1
36 62 -1
36 66 1
36 68 -1
36 70 -1
36 72 1
36 73 -1
36 75 -1
36 76 -1
36 79 1
36 81 -1
36 82 1
36 84 1
36 87 -1
36 90 -1
36 92 -1
36 95 -1
36 97 -1
36 98 1
36 99 -1
36 100 -1
37 38 1
37 39 -1
37 40 1
37 43 1
37 46 -1
37 50 -1
37 51 -1
37 52 1
37 53 1
37 54 -1
37 55 1
37 58 -1
37 60 -1
37 61 -1
37 62 1
37 64 -1
37 65 -1
37 66 1
37 69 1
37 70 -1
37 71 -1
37 73 -1
37 77 1
37 80 1
37 81 -1
37 85 -1
37 86 1
37 87 1
37 88 1
37 89 1
37 90 -1
37 93 1
37 95 1
37 98 1
37 100 1
38 39 -1
38 40 1
38 41 1
38 42 -1
38 44 1
38 47 1
38 48 -1
38 50 -1
38 51 -1
38 52 -1
38 57 -1
38 58 -1
38 59 1
38 60 -1
38 62 1
38 64 1
38 65 1
38 66 1
38 67 1
38 69 -1
38 70 -1
38 72 -1
38 74 1
38 75 1
38 76 -1
38 78 1
38 79 -1
38 83 1
38 85 -1
38 87 1
38 89 -1
38 90 1
38 93 1
38 97 -1
38 100 -1
39 44 1
39 45 1
39 48 1
39 49 -1
39 52 1
39 53 1
39 54 -1
39 55 1
39 56 -1
39 58 1
39 60 1
39 61 -1
39 63 -1
39 67 -1
39 69 1
39 71 -1
39 74 1
39 77 -1
39 81 1
39 82 1
39 83 1
39 85 1
39 89 1
39 90 1
39 91 1
39 93 -1
39 94 1
39 95 1
39 96 1
39 98 1
40 41 -1
40 43 -1
40 45 -1
40 46 -1
40 47 1
40 50 1
40 51 1
40 53 -1
40 57 1
40 58 -1
40 64 1
40 67 -1
40 68 1
40 70 1
40 71 1
40 75 1
40 76 -1
40 80 1
40 81 -1
40 82 1
40 87 1
40 90 -1
40 91 1
40 93 1
40 94 1
40 95 1
40 96 -1
40 97 -1
40 99 -1
41 44 1
41 51 -1
41 52 -1
41 55 1
41 59 -1
41 61 1
41 63 -1
41 66 1
41 67 1
41 68 -1
41 70 -1
41 71 1
41 73 1
41 77 -1
41 82 -1
41 83 -1
41 84 -1
41 86 -1
41 87 -1
41 90 -1
41 92 -1
41 96 -1
41 98 -1
41 99 1
42 44 1
42 45 -1
42 46 -1
42 47 1
42 48 1
42 50 1
42 51 1
42 52 -1
42 53 1
42 54 -1
42 57 -1
42 58 -1
42 60 1
42 62 1
42 63 -1
42 64 1
42 66 1
42 68 -1
42 72 -1
42 74 1
42 75 1
42 76 -1
42 77 -1
42 78 -1
42 79 -1
42 80 -1
42 81 -1
42 83 1
42 87 -1
42 90 1
42 93 -1
42 95 1
42 98 -1
42 99 -1
42 100 -1
43 49 -1
43 51 1
43 55 -1
43 56 1
43 60 -1
43 61 -1
43 64 -1
43 65 1
43 66 1
43 68 1
43 74 1
43 75 -1
43 76 1
43 78 1
43 80 1
43 81 -1
43 82 -1
43 91 1
43 92 1
43 93 -1
43 97 -1
43 99 1
44 45 1
44 46 1
44 47 -1
44 49 1
44 51 -1
44 53 1
44 54 -1
44 59 1
44 60 1
44 61 1
44 62 -1
44 63 1
44 65 -1
44 66 -1
44 69 1
44 70 1
44 71 1
44 73 1
44 74 -1
44 75 -1
44 76 1
44 79 -1
44 80 -1
44 81 -1
44 87 1
44 88 -1
44 93 -1
44 98 1
44 99 -1
44 100 -1
45 47 1
45 48 1
45 50 1
45 54 -1
45 56 -1
45 57 1
45 58 1
45 65 -1
45 66 -1
45 68 -1
45 69 -1
45 72 1
45 73 -1
45 74 1
45 75 1
45 77 1
45 82 -1
45 84 -1
45 88 -1
45 91 -1
45 92 1
45 93 1
45 95 -1
45 99 1
45 100 -1
46 47 1
46 50 1
46 51 1
46 52 -1
46 55 -1
46 58 -1
46 60 -1
46 62 1
46 63 -1
46 69 1
46 72 -1
46 73 1
46 79 1
46 80 1
46 84 1
46 88 -1
46 89 -1
46 90 1
46 92 1
46 93 1
46 100 -1
47 48 1
47 51 1
47 52 -1
47 53 1
47 57 -1
47 58 -1
47 61 -1
47 62 1
47 64 1
47 71 1
47 73 1
47 74 1
47 76 -1
47 77 1
47 78 1
47 79 1
47 80 1
47 82 1
47 89 -1
47 90 -1
47 93 1
47 94 -1
47 95 1
47 96 1
47 97 -1
48 49 -1
48 50 -1
48 51 1
48 53 -1
48 55 1
48 57 1
48 58 1
48 61 1
48 66 1
48 68 -1
48 69 -1
48 72 -1
48 73 -1
48 74 -1
48 76 -1
48 77 1
48 78 -1
48 79 -1
48 80 1
48 81 1
48 84 1
48 85 -1
48 86 1
48 87 1
48 88 -1
48 90 1
48 92 -1
48 96 -1
48 100 1
49 51 1
49 56 -1
49 59 1
49 63 1
49 65 1
49 66 -1
49 68 1
49 69 1
49 70 -1
49 71 -1
49 75 -1
49 82 1
49 84 1
49 85 1
49 86 1
49 89 -1
49 91 -1
49 92 1
49 93 1
49 94 1
49 96 -1
49 97 -1
50 52 -1
50 53 1
50 59 1
50 60 1
50 63 1
50 67 -1
50 72 -1
50 75 -1
50 76 1
50 78 -1
50 82 -1
50 84 1
50 85 -1
50 86 -1
50 87 1
50 90 -1
50 92 -1
50 94 -1
50 96 1
50 97 -1
51 52 -1
51 54 -1
51 55 -1
51 57 1
51 58 -1
51 59 1
51 60 -1
51 65 1
51 68 1
51 69 1
51 73 1
51 75 -1
51 82 -1
51 83 -1
51 88 -1
51 90 -1
51 91 -1
51 95 1
51 97 -1
51 98 1
51 100 -1
52 55 -1
52 59 1
52 61 -1
52 64 -1
52 67 -1
52 68 -1
52 70 -1
52 71 -1
52 72 1
52 75 -1
52 76 -1
52 78 -1
52 79 1
52 81 1
52 82 1
52 83 1
52 84 1
52 86 1
52 90 1
52 93 1
52 95 1
52 97 1
52 98 1
52 99 1
52 100 -1
53 54 1
53 57 1
53 60 1
53 63 1
53 64 -1
53 65 -1
53 68 -1
53 69 -1
53 70 1
53 71 1
53 72 -1
53 73 1
53 75 -1
53 78 -1
53 79 -1
53 80 -1
53 82 1
53 87 1
53 88 1
53 91 -1
53 93 1
53 94 -1
53 96 1
53 98 -1
53 99 -1
54 55 1
54 57 1
54 59 -1
54 60 1
54 61 -1
54 63 -1
54 64 1
54 65 -1
54 66 1
54 68 1
54 69 -1
54 70 -1
54 73 1
54 77 -1
54 79 1
54 83 -1
54 84 1
54 92 1
54 95 1
54 97 1
54 100 -1
55 56 -1
55 59 -1
55 61 1
55 62 -1
55 63 1
55 64 1
55 70 -1
55 71 1
55 72 -1
55 76 1
55 77 1
55 78 1
55 82 1
55 83 1
55 84 1
55 86 1
55 87 1
55 88 -1
55 89 1
55 92 -1
55 93 -1
55 94 1
55 95 1
55 97 1
55 98 -1
56 57 1
56 59 -1
56 63 1
56 65 -1
56 66 1
56 68 1
56 71 1
56 74 1
56 76 1
56 78 -1
56 82 1
56 87 1
56 91 -1
56 92 1
56 93 1
56 94 1
56 97 -1
56 98 -1
57 59 -1
57 60 -1
57 61 1
57 62 1
57 66 1
57 67 1
57 68 1
57 70 1
57 72 1
57 73 1
57 74 1
57 76 1
57 77 -1
57 78 -1
57 81 -1
57 87 1
57 91 1
57 93 -1
57 94 -1
57 96 1
57 97 1
57 100 -1
58 59 1
58 60 1
58 62 -1
58 63 1
58 64 1
58 65 -1
58 67 -1
58 69 -1
58 71 -1
58 72 1
58 73 -1
58 79 -1
58 84 1
58 86 1
58 88 -1
58 89 1
58 90 -1
58 93 -1
58 95 -1
58 96 -1
58 100 1
59 60 -1
59 61 -1
59 63 -1
59 68 1
59 70 -1
59 71 -1
59 72 1
59 73 1
59 74 -1
59 75 1
59 77 1
59 78 -1
59 81 -1
59 82 1
59 83 -1
59 85 -1
59 91 -1
59 92 -1
59 94 1
59 96 1
60 63 -1
60 72 1
60 73 -1
60 74 1
60 76 -1
60 79 -1
60 80 1
60 83 1
60 86 -1
60 88 1
60 89 -1
60 90 1
60 91 -1
60 92 1
60 93 1
60 95 -1
60 97 1
60 100 -1
61 63 -1
61 64 -1
61 65 1
61 66 -1
61 67 1
61 68 -1
61 75 1
61 77 1
61 79 -1
61 81 1
61 82 1
61 86 1
61 87 -1
61 89 1
61 90 1
61 92 1
61 93 1
61 96 -1
61 97 -1
61 98 1
61 100 1
62 65 -1
62 67 1
62 68 -1
62 72 -1
62 73 -1
62 76 -1
62 78 1
62 80 -1
62 82 -1
62 83 1
62 84 -1
62 89 1
62 92 1
62 95 -1
62 96 1
62 98 -1
62 100 -1
63 64 -1
63 66 1
63 67 -1
63 68 1
63 70 -1
63 71 1
63 73 1
63 74 1
63 76 1
63 77 1
63 78 -1
63 79 1
63 81 1
63 82 1
63 83 1
63 85 1
63 86 -1
63 87 1
63 89 -1
63 92 1
63 93 1
63 94 -1
63 95 -1
63 96 1
63 97 -1
63 100 -1
64 65 1
64 68 -1
64 70 1
64 75 1
64 78 -1
64 80 1
64 81 1
64 83 -1
64 84 -1
64 86 -1
64 87 1
64 88 1
64 91 -1
64 93 -1
64 95 1
64 96 -1
64 98 1
64 99 -1
64 100 1
65 66 -1
65 67 -1
65 70 1
65 71 -1
65 72 1
65 73 1
65 76 1
65 77 1
65 78 1
65 79 1
65 80 -1
65 81 1
65 83 1
65 85 1
65 86 -1
65 88 -1
65 89 -1
65 90 -1
65 91 1
65 93 1
65 94 1
65 97 1
65 99 -1
66 67 1
66 69 1
66 70 -1
66 73 1
66 79 -1
66 80 1
66 81 -1
66 82 1
66 83 1
66 86 1
66 90 -1
66 92 1
66 99 1
67 69 1
67 71 1
67 72 1
67 73 -1
67 75 -1
67 76 1
67 78 1
67 79 -1
67 81 -1
67 82 -1
67 86 -1
67 90 1
67 92 -1
67 93 1
67 94 -1
67 95 1
68 69 1
68 70 -1
68 71 1
68 75 1
68 78 -1
68 79 -1
68 80 -1
68 83 -1
68 85 1
68 87 -1
68 91 -1
68 93 -1
68 94 1
68 96 -1
68 97 -1
69 70 -1
69 72 1
69 73 -1
69 75 -1
69 76 1
69 77 -1
69 78 -1
69 79 -1
69 80 1
69 83 -1
69 84 -1
69 90 1
69 92 -1
69 94 1
69 95 1
69 96 -1
69 97 1
69 99 -1
70 71 -1
70 72 1
70 75 -1
70 79 1
70 80 1
70 81 1
70 85 -1
70 87 1
70 88 1
70 89 -1
70 92 1
70 93 1
70 94 -1
70 96 -1
70 99 -1
71 72 -1
71 81 1
71 82 1
71 85 1
71 86 -1
71 87 -1
71 88 1
71 91 -1
71 93 1
71 95 -1
71 97 1
71 100 1
72 73 -1
72 74 -1
72 75 -1
72 77 1
72 79 1
72 81 -1
72 82 -1
72 84 1
72 85 -1
72 86 -1
72 87 1
72 89 -1
72 91 1
72 92 -1
72 95 -1
72 96 -1
72 97 1
73 76 1
73 77 -1
73 78 -1
73 80 1
73 83 -1
73 88 -1
73 89 1
73 94 1
73 95 1
74 75 1
74 78 -1
74 81 -1
74 82 1
74 83 -1
74 84 -1
74 88 -1
74 89 1
74 91 1
74 93 -1
74 94 -1
74 96 1
74 97 1
74 99 1
74 100 1
75 76 -1
75 78 -1
75 83 1
75 84 -1
75 85 -1
75 87 1
75 90 -1
75 92 -1
75 93 1
75 100 -1
76 77 1
76 80 -1
76 81 1
76 83 -1
76 85 1
76 90 -1
76 91 1
76 92 1
76 93 -1
76 97 -1
76 100 -1
77 78 1
77 80 1
77 82 -1
77 83 1
77 84 -1
77 85 1
77 86 1
77 87 1
77 88 -1
77 92 -1
77 94 1
77 95 1
77 96 -1
77 98 1
77 100 1
78 80 -1
78 82 -1
78 83 -1
78 86 1
78 88 1
78 90 1
78 95 1
78 96 1
78 98 -1
78 99 1
79 81 1
79 82 -1
79 84 1
79 86 1
79 88 1
79 92 1
79 94 -1
79 99 1
79 100 -1
80 81 1
80 85 1
80 86 -1
80 88 -1
80 90 -1
80 92 1
80 98 1
80 99 -1
81 82 1
81 85 1
81 86 -1
81 87 -1
81 88 1
81 89 1
81 91 1
81 92 -1
81 95 1
81 96 -1
82 90 1
82 92 -1
82 94 -1
82 95 -1
82 96 1
82 99 1
82 100 1
83 84 1
83 85 -1
83 86 -1
83 88 1
83 90 -1
83 91 1
83 92 -1
83 95 -1
83 96 -1
83 97 -1
84 85 -1
84 89 -1
84 91 1
84 93 -1
84 94 1
85 88 -1
85 90 -1
85 92 1
85 97 -1
85 98 1
85 100 -1
86 87 -1
86 88 1
86 90 1
86 91 1
86 92 1
86 94 1
86 95 -1
86 96 -1
86 99 1
86 100 1
87 88 1
87 90 1
87 96 -1
87 99 1
88 92 -1
88 94 -1
88 95 -1
88 96 1
88 98 1
88 99 1
88 100 -1
89 90 1
89 92 1
89 93 1
89 94 1
89 96 1
89 98 1
89 100 -1
90 91 1
90 93 -1
90 98 1
90 100 -1
91 93 1
91 94 -1
91 96 1
91 99 -1
92 93 1
92 94 -1
92 95 1
92 98 -1
92 99 -1
93 95 1
93 97 1
94 97 1
94 98 1
94 99 1
95 96 1
95 97 1
95 98 1
95 99 1
96 99 1
96 100 1
97 99 1
98 100 1
99 100 1
